
Gurobi 12.0.1 (win64, C++) logging started Thu Apr 17 22:36:44 2025

Set parameter TokenServer to value "141.76.38.119"
Set parameter Threads to value 8
Set parameter LazyConstraints to value 1
Set parameter PreCrush to value 1
Set parameter Seed to value 0
Set parameter Cuts to value -1
Set parameter TimeLimit to value 28800
Set parameter NumericFocus to value 0
Set parameter SolutionLimit to value 10000
Gurobi Optimizer version 12.0.1 build v12.0.1rc0 (win64 - Windows Server 2022.0 (20348.2))

CPU model: AMD EPYC 7513 32-Core Processor, instruction set [SSE2|AVX|AVX2]
Thread count: 16 physical cores, 16 logical processors, using up to 8 threads

Non-default parameters:
SolutionLimit  10000
TimeLimit  28800
PreCrush  1
Threads  8
LazyConstraints  1

Optimize a model with 277 rows, 529 columns and 1518 nonzeros
Model fingerprint: 0x772352b3
Variable types: 0 continuous, 529 integer (529 binary)
Coefficient statistics:
  Matrix range     [1e+00, 1e+00]
  Objective range  [4e+00, 1e+02]
  Bounds range     [1e+00, 1e+00]
  RHS range        [1e+00, 6e+00]

User MIP start produced solution with objective 782.092 (0.01s)
Loaded user MIP start with objective 782.092

Presolve removed 10 rows and 43 columns
Presolve time: 0.01s
Presolved: 267 rows, 486 columns, 1414 nonzeros
Variable types: 0 continuous, 486 integer (486 binary)

Root relaxation: objective 5.644680e+02, 75 iterations, 0.00 seconds (0.00 work units)

    Nodes    |    Current Node    |     Objective Bounds      |     Work
 Expl Unexpl |  Obj  Depth IntInf | Incumbent    BestBd   Gap | It/Node Time

     0     0  564.46796    0    -  782.09153  564.46796  27.8%     -    0s
     0     0  567.33490    0    -  782.09153  567.33490  27.5%     -    0s
     0     0  591.68385    0    -  782.09153  591.68385  24.3%     -    0s
     0     0  592.36949    0    -  782.09153  592.36949  24.3%     -    0s
     0     0  596.11574    0   10  782.09153  596.11574  23.8%     -    0s
     0     0  602.86023    0    -  782.09153  602.86023  22.9%     -    0s
     0     0  614.00286    0    -  782.09153  614.00286  21.5%     -    0s
     0     0  617.18671    0    -  782.09153  617.18671  21.1%     -    0s
     0     0  622.58121    0    -  782.09153  622.58121  20.4%     -    0s
     0     0  623.12162    0    -  782.09153  623.12162  20.3%     -    0s
     0     0  623.47608    0   34  782.09153  623.47608  20.3%     -    0s
     0     0  625.57242    0    -  782.09153  625.57242  20.0%     -    0s
     0     0  630.87004    0    -  782.09153  630.87004  19.3%     -    0s
     0     0  633.36076    0    -  782.09153  633.36076  19.0%     -    0s
     0     0  634.56541    0   38  782.09153  634.56541  18.9%     -    0s
     0     0  643.88898    0    -  782.09153  643.88898  17.7%     -    0s
     0     0  644.33591    0   12  782.09153  644.33591  17.6%     -    0s
     0     0  645.62620    0    -  782.09153  645.62620  17.4%     -    0s
     0     0  647.23248    0   42  782.09153  647.23248  17.2%     -    0s
     0     0  648.98035    0   16  782.09153  648.98035  17.0%     -    2s
H    0     0                     778.8775262  654.78348  15.9%     -    3s
     0     0  654.78348    0   16  778.87753  654.78348  15.9%     -    3s
     0     0  654.78348    0   16  778.87753  654.78348  15.9%     -    3s
     0     2  654.78348    0   16  778.87753  654.78348  15.9%     -    3s
   350   402  710.72868   31   37  778.87753  664.53500  14.7%  18.0    6s
  1011   978  693.29520   25   54  778.87753  667.16297  14.3%  14.2   10s
  1698  1498  716.21920   55  238  778.87753  687.40598  11.7%  12.6   15s
H 1927  1634                     749.0093101  688.26318  8.11%  15.2   19s
  1977  1621  688.50935   22  248  749.00931  688.31303  8.10%  15.5   20s
H 2182  1611                     739.2948540  688.47074  6.87%  16.5   22s
  2717  1715  735.87212   53   29  739.29485  692.66799  6.31%  17.6   25s
  3717  1746  705.70970   25  182  739.29485  696.93716  5.73%  18.7   32s
  4056  1793  719.42709   31  166  739.29485  699.62881  5.37%  19.0   35s
* 4773  1597              45     736.4124307  701.10465  4.79%  19.2   40s
* 4774  1521              45     736.1880264  701.10465  4.77%  19.2   41s
H 4775  1488                     735.1420561  701.10465  4.63%  19.2   41s
  5820  1395  721.40842   32  192  735.14206  705.29314  4.06%  19.8   45s
  6617  1478     cutoff   29       735.14206  707.95775  3.70%  20.3   50s
  9744  1576     cutoff   30       735.14206  716.66446  2.51%  21.2   55s

Cutting planes:
  Gomory: 13
  Cover: 1
  Implied bound: 2
  Clique: 2
  MIR: 4
  StrongCG: 2
  Flow cover: 16
  GUB cover: 5
  Inf proof: 4
  Zero half: 21
  Network: 1
  RLT: 5
  Relax-and-lift: 7
  Lazy constraints: 801

Explored 15250 nodes (311783 simplex iterations) in 59.71 seconds (12.93 work units)
Thread count was 8 (of 16 available processors)

Solution count 7: 735.142 736.188 736.412 ... 782.092

Optimal solution found (tolerance 1.00e-04)
Best objective 7.351420560657e+02, best bound 7.351420560657e+02, gap 0.0000%

User-callback calls 31749, time in user-callback 47.13 sec
### START EXACT APPROACH ###
ProblemVariant: 3
### START PREPROCESSING ###
## Start infeasible path procedure ## 
Deleted arcs: 20
Infeasible tail paths: 0
Infeasible 2-node combinations: 10
## Start extended infeasible path procedure ##
Deleted arcs: 20
Infeasible tail paths: 0
Infeasible 2-node combinations: 10
## Start start solution procedure ##
Start solution with 5 Vehicles and total costs 782.092 in 0.838034 s.
### END PREPROCESSING ###
Route 0 0-7-4-5-9-13-0 : weight util 0.555556 | volume util 0.678133 | infeasible with packing heuristic | feasible with CP model
Route 1 0-12-11-6-1-2-3-15-16-0 : weight util 0.270889 | volume util 0.696044 | infeasible with packing heuristic | feasible with CP model
Route 2 0-14-17-22-20-19-0 : weight util 0.427778 | volume util 0.730244 | infeasible with packing heuristic | feasible with CP model
Route 3 0-18-0 : weight util 0.026667 | volume util 0.258400 | feasible with packing heuristic | feasible with CP model
Route 4 0-21-8-10-0 : weight util 0.983333 | volume util 0.467044 | feasible with packing heuristic | feasible with CP model
